33D32945 STP File, STP Format Version 1.0

SECTION Comments
Name "cube_n11_d2_s48"
Problem "Euclidean Steiner Tree Problem"
Remark "Generated with STPGenerator. 2 dimensions."
END

SECTION Graph
Nodes 11
END

SECTION Coordinates
DD 0 0.6838657743 0.3087545369
DD 1 0.0063704299 0.3432311920
DD 2 0.8108547613 0.5749283333
DD 3 0.3027468763 0.1342774458
DD 4 0.6345026189 0.0329879546
DD 5 0.4224220134 0.7367339450
DD 6 0.2257205198 0.9471432748
DD 7 0.0564415637 0.0184599767
DD 8 0.1722892593 0.6367555897
DD 9 0.2241443257 0.7155450055
DD 10 0.4162855211 0.0445806133
END
